50 2835
516 810 824 827 1006 908 911 312 528 318 1030 381 1025 534 400 672 681 443 1070 967 800 483 951 191 632 991 248 238 593 531 1009 216 249 618 612 614 141 1071 1002 998 993 206 876 1003 440 648 443 732 1049 901 
416 710 724 727 906 808 811 212 428 218 930 281 925 434 300 572 581 343 970 867 700 383 851 91 532 891 148 138 493 431 909 116 149 518 512 514 41 971 902 898 893 106 776 903 340 548 343 632 949 801 
